capacity = 11181;
knapsacks_n = 9;
items_n = 12;
values = [1945, 321, 2945, 4136, 1107, 1022, 1101, 2890, 962, 1060, 805, 689];
weights = [4990, 1142, 7390, 10372, 3114, 2744, 3102, 7280, 2624, 3020, 2310, 2078];